[677, 708, 689, 653, 668, 684, 677, 675, 677, 662, 1349, 1335, 1363, 1379, 1373, 1321, 1325, 1336, 1347, 1362, 2646, 2679, 2653, 2680, 2653, 2715, 2634, 2718, 2682, 2685, 5350, 5403, 5368, 5337, 5423, 5378, 5389, 5329, 5345, 5330, 10672, 10662, 10694, 10587, 10641, 10635, 10696, 10672, 10704, 10646]
